benchmarks_vrp/CMT3/fixed_c/CMT3_7.vrp
NAME: CMT3_7
TYPE: CVRP
COMMENT: 826.14 - Cluster Nr.7
DIMENSION: 9
CAPACITY: 200
EDGE_WEIGHT_TYPE: EUC_2D
NODE_COORD_TYPE: TWOD_COORDS
NODE_COORD_SECTION: 
7 41 49
4 37 47
9 37 56
6 35 35
5 26 52
2 35 40
8 27 43
1 31 52
3 40 60
DEPOT_SECTION: 
6
-1
DEMAND_SECTION: 
9 5
2 16
6 0
5 9
4 6
3 21
1 27
8 9
7 10
EOF
