benchmarks_vrp/CMT3/fixed_c/CMT3_7.tour
NAME: CMT3_7 solution
TYPE: TOUR
TOUR_SECTION:
6 2 4 7 3 9 1 5 8 -1
-1
EOF